&CONTROL
  calculation = 'scf'
  prefix = 'mgvb2h4_u'
  pseudo_dir = '/home/jonsmirl/thesis/superconductor_dft/pseudo'
  outdir = './tmp/'
/
&SYSTEM
  ibrav = 0
  nat = 16
  ntyp = 4
  ecutwfc = 50.0
  ecutrho = 400.0
  occupations = 'smearing'
  smearing = 'mp'
  degauss = 0.02
  nosym = .true.
/
&ELECTRONS
  conv_thr = 1.0d-8
  mixing_beta = 0.3
  electron_maxstep = 200
/
CELL_PARAMETERS {angstrom}
  6.080  0.000  0.000
 -3.040  5.265  0.000
  0.000  0.000  5.000

ATOMIC_SPECIES
  Mg  24.305  Mg.pbe-n-kjpaw_psl.0.3.0.UPF
  V   50.942  v_pbe_v1.4.uspp.F.UPF
  B   10.811  B.pbe-n-kjpaw_psl.1.0.0.UPF
  H    1.008  H.pbe-kjpaw.UPF

ATOMIC_POSITIONS {crystal}
  Mg  0.000  0.000  0.000
  V   0.500  0.000  0.000
  Mg  0.250  0.500  0.500
  V   0.750  0.500  0.500
  B   0.167  0.333  0.250
  B   0.333  0.167  0.250
  B   0.667  0.333  0.250
  B   0.833  0.167  0.250
  H   0.167  0.333  0.420
  H   0.333  0.167  0.420
  H   0.667  0.333  0.420
  H   0.833  0.167  0.420
  H   0.167  0.333  0.080
  H   0.333  0.167  0.080
  H   0.667  0.333  0.080
  H   0.833  0.167  0.080

K_POINTS {automatic}
  4 4 6  0 0 0

HUBBARD {atomic}
U V-3d 3.5
