&DOS
  prefix = 'mgb2h2'
  outdir = './tmp/'
  fildos = 'dos_relaxed.dat'
  DeltaE = 0.05
  degauss = 0.02
/
