&INPUT
  fildyn = 'mgb2h2r.dyn8'
  asr = 'crystal'
/
