&INPUT
  fildyn = 'mgb2h2r.dyn6'
  asr = 'crystal'
/
