&INPUT
  fildyn = 'mgb2h2r.dyn5'
  asr = 'crystal'
/
