&INPUT
  fildyn = 'mgb2h2r.dyn4'
  asr = 'crystal'
/
