&INPUT
  fildyn = 'mgb2h2r.dyn3'
  asr = 'crystal'
/
