&INPUT
  fildyn = 'mgb2h2r.dyn2'
  asr = 'crystal'
/
