&INPUT
  fildyn = 'mgb2h2r.dyn7'
  asr = 'crystal'
/
