&INPUT
  fildyn = 'mgb2h2.dyn'
  flfrc = 'mgb2h2.fc'
  zasr = 'crystal'
/
