El-ph for MgBCH2 (x=0.50)
&INPUTPH
  prefix = 'mgbc50'
  outdir = './tmp/'
  fildyn = 'mgbc50.dyn'
  fildvscf = 'dvscf'
  ldisp = .true.
  nq1 = 2, nq2 = 2, nq3 = 2
  tr2_ph = 1.0d-12
  search_sym = .false.
  electron_phonon = 'interpolated'
  el_ph_sigma = 0.01
  el_ph_nsigma = 10
/
